NAME : sample14
COMMENT : Sample dataset with 14 nodes
COMMENT : Derived from Zainab
TYPE : TSP
DIMENSION : 14
EDGE_WEIGHT_TYPE : EUC_2D
NODE_COORD_SECTION
1 23 78
2 67 45
3 34 56
4 90 12
5 56 32
6 98 76
7 21 89
8 45 65
9 87 54
10 23 76
11 54 14
12 76 98
13 32 67
14 78 34
EOF
